33D32945 STP File, STP Format Version 1.0

SECTION Comment
Name "i640-035-PCST"
Creator "Indaco Biazzo" 
Remark "derived from Incidence graph by Cees Duin"
END

SECTION Graph
Nodes 640
Edges 1280
E 1 79 200.000000
E 1 109 194.000000
E 1 291 201.000000
E 1 488 190.000000
E 1 503 202.000000
E 2 270 198.000000
E 2 430 202.000000
E 2 556 196.000000
E 2 558 200.000000
E 2 640 206.000000
E 3 264 192.000000
E 3 391 208.000000
E 4 25 204.000000
E 4 67 201.000000
E 4 243 203.000000
E 5 141 206.000000
E 5 360 196.000000
E 5 370 200.000000
E 5 423 200.000000
E 5 626 199.000000
E 6 94 200.000000
E 6 194 202.000000
E 6 605 204.000000
E 7 29 197.000000
E 7 70 194.000000
E 7 166 199.000000
E 7 181 203.000000
E 7 357 201.000000
E 7 384 201.000000
E 7 508 197.000000
E 8 499 196.000000
E 9 281 199.000000
E 10 118 100.000000
E 10 522 97.000000
E 11 79 108.000000
E 11 463 105.000000
E 12 139 100.000000
E 12 247 104.000000
E 12 318 109.000000
E 12 334 94.000000
E 12 389 103.000000
E 13 14 107.000000
E 13 32 99.000000
E 13 135 97.000000
E 13 287 101.000000
E 14 44 89.000000
E 14 112 106.000000
E 14 364 105.000000
E 14 404 98.000000
E 15 279 88.000000
E 15 630 93.000000
E 16 60 101.000000
E 16 77 103.000000
E 16 109 93.000000
E 16 322 103.000000
E 16 472 99.000000
E 16 564 102.000000
E 16 613 98.000000
E 17 43 93.000000
E 17 79 98.000000
E 17 91 99.000000
E 17 351 103.000000
E 17 379 100.000000
E 17 466 94.000000
E 18 154 93.000000
E 18 363 106.000000
E 18 459 104.000000
E 18 475 98.000000
E 18 489 103.000000
E 18 634 93.000000
E 19 139 91.000000
E 19 182 94.000000
E 19 226 107.000000
E 19 434 102.000000
E 19 495 95.000000
E 19 557 103.000000
E 19 620 101.000000
E 20 43 100.000000
E 20 329 102.000000
E 20 613 99.000000
E 21 48 95.000000
E 21 143 99.000000
E 21 150 109.000000
E 21 230 105.000000
E 21 302 102.000000
E 21 346 106.000000
E 21 360 95.000000
E 21 423 96.000000
E 21 540 107.000000
E 21 607 99.000000
E 22 319 96.000000
E 22 529 101.000000
E 22 622 101.000000
E 23 31 99.000000
E 23 173 102.000000
E 23 198 104.000000
E 23 276 105.000000
E 23 563 90.000000
E 23 616 109.000000
E 24 35 100.000000
E 24 160 97.000000
E 24 238 98.000000
E 24 396 95.000000
E 24 520 92.000000
E 24 543 90.000000
E 24 547 99.000000
E 24 639 97.000000
E 25 32 94.000000
E 25 38 105.000000
E 25 185 105.000000
E 25 258 111.000000
E 25 339 93.000000
E 25 340 105.000000
E 26 271 106.000000
E 26 395 100.000000
E 27 384 106.000000
E 28 350 94.000000
E 28 380 97.000000
E 28 401 91.000000
E 28 410 105.000000
E 28 510 95.000000
E 30 202 101.000000
E 30 288 96.000000
E 30 604 100.000000
E 31 62 98.000000
E 31 121 98.000000
E 31 267 100.000000
E 31 310 104.000000
E 31 534 105.000000
E 31 618 100.000000
E 31 625 100.000000
E 32 114 99.000000
E 32 207 100.000000
E 32 263 96.000000
E 32 281 101.000000
E 33 397 97.000000
E 33 547 104.000000
E 34 242 103.000000
E 34 259 100.000000
E 35 337 94.000000
E 35 389 99.000000
E 35 623 90.000000
E 36 516 96.000000
E 36 532 92.000000
E 37 53 99.000000
E 37 187 104.000000
E 38 94 93.000000
E 38 193 97.000000
E 38 261 96.000000
E 38 410 102.000000
E 38 573 100.000000
E 39 57 99.000000
E 39 122 103.000000
E 39 255 106.000000
E 39 583 103.000000
E 39 637 104.000000
E 40 78 98.000000
E 40 149 94.000000
E 40 246 104.000000
E 40 421 109.000000
E 40 594 102.000000
E 41 86 95.000000
E 41 138 102.000000
E 41 173 100.000000
E 41 238 102.000000
E 41 388 97.000000
E 41 444 104.000000
E 41 637 102.000000
E 42 78 105.000000
E 42 80 100.000000
E 42 630 98.000000
E 42 635 94.000000
E 43 368 95.000000
E 43 537 104.000000
E 44 335 102.000000
E 44 396 97.000000
E 45 58 107.000000
E 45 512 93.000000
E 45 627 93.000000
E 46 186 105.000000
E 46 277 100.000000
E 46 611 105.000000
E 47 217 96.000000
E 47 419 104.000000
E 48 281 105.000000
E 48 575 96.000000
E 49 137 94.000000
E 50 187 94.000000
E 51 88 100.000000
E 51 160 101.000000
E 51 231 94.000000
E 51 310 91.000000
E 51 558 92.000000
E 51 591 105.000000
E 52 66 93.000000
E 52 588 103.000000
E 52 623 101.000000
E 52 636 108.000000
E 53 74 109.000000
E 53 419 97.000000
E 53 476 96.000000
E 54 335 105.000000
E 54 349 95.000000
E 54 397 95.000000
E 54 468 104.000000
E 54 485 99.000000
E 55 84 97.000000
E 55 585 101.000000
E 56 172 107.000000
E 56 246 100.000000
E 56 475 102.000000
E 57 109 98.000000
E 57 375 91.000000
E 57 426 95.000000
E 57 628 99.000000
E 58 163 94.000000
E 58 594 98.000000
E 59 176 99.000000
E 59 178 97.000000
E 59 184 99.000000
E 59 384 99.000000
E 60 173 105.000000
E 61 247 98.000000
E 61 368 96.000000
E 62 140 96.000000
E 62 332 106.000000
E 62 403 114.000000
E 62 426 99.000000
E 62 617 98.000000
E 63 235 101.000000
E 63 342 97.000000
E 63 418 93.000000
E 64 178 101.000000
E 64 451 97.000000
E 65 176 102.000000
E 65 208 104.000000
E 65 343 100.000000
E 65 552 100.000000
E 66 95 90.000000
E 66 306 101.000000
E 66 408 100.000000
E 67 408 98.000000
E 67 424 104.000000
E 67 425 97.000000
E 68 412 104.000000
E 69 132 102.000000
E 69 175 95.000000
E 69 324 102.000000
E 69 458 107.000000
E 69 611 113.000000
E 70 84 95.000000
E 70 250 105.000000
E 70 303 95.000000
E 70 434 106.000000
E 70 615 98.000000
E 71 85 95.000000
E 71 91 95.000000
E 71 95 98.000000
E 71 268 96.000000
E 71 322 96.000000
E 71 432 95.000000
E 72 123 93.000000
E 72 275 105.000000
E 72 378 104.000000
E 72 449 102.000000
E 72 454 103.000000
E 73 150 101.000000
E 73 306 107.000000
E 73 465 94.000000
E 73 524 96.000000
E 73 552 94.000000
E 74 91 103.000000
E 74 255 104.000000
E 74 282 100.000000
E 74 364 107.000000
E 74 415 102.000000
E 74 489 99.000000
E 75 581 101.000000
E 75 585 101.000000
E 76 246 103.000000
E 77 508 101.000000
E 77 530 91.000000
E 78 102 100.000000
E 78 217 95.000000
E 78 249 97.000000
E 78 425 103.000000
E 78 516 103.000000
E 78 594 100.000000
E 79 128 102.000000
E 79 364 101.000000
E 79 438 101.000000
E 79 481 96.000000
E 79 546 95.000000
E 79 629 102.000000
E 80 144 96.000000
E 80 368 91.000000
E 80 440 113.000000
E 81 326 94.000000
E 81 402 100.000000
E 81 412 112.000000
E 82 111 98.000000
E 82 267 86.000000
E 82 386 103.000000
E 82 439 106.000000
E 82 455 102.000000
E 82 586 101.000000
E 83 121 87.000000
E 83 180 93.000000
E 84 335 98.000000
E 85 374 102.000000
E 85 429 104.000000
E 86 136 103.000000
E 86 244 87.000000
E 86 495 105.000000
E 86 536 99.000000
E 87 183 100.000000
E 87 323 106.000000
E 87 476 100.000000
E 88 177 96.000000
E 89 203 102.000000
E 89 237 99.000000
E 89 310 94.000000
E 89 340 89.000000
E 89 354 98.000000
E 89 386 101.000000
E 89 432 102.000000
E 89 459 105.000000
E 89 606 91.000000
E 89 627 103.000000
E 90 102 97.000000
E 90 374 99.000000
E 90 502 91.000000
E 91 219 96.000000
E 91 261 97.000000
E 91 310 95.000000
E 91 349 95.000000
E 91 459 88.000000
E 91 493 102.000000
E 91 587 100.000000
E 92 250 101.000000
E 92 288 105.000000
E 93 98 98.000000
E 93 603 102.000000
E 94 247 97.000000
E 94 541 94.000000
E 94 580 103.000000
E 94 594 92.000000
E 95 159 98.000000
E 96 136 98.000000
E 96 239 102.000000
E 97 218 104.000000
E 97 352 98.000000
E 97 460 96.000000
E 98 125 109.000000
E 98 445 105.000000
E 98 527 99.000000
E 98 590 96.000000
E 99 280 99.000000
E 99 326 100.000000
E 99 630 98.000000
E 100 223 106.000000
E 100 562 95.000000
E 101 469 95.000000
E 101 489 106.000000
E 101 564 104.000000
E 102 251 100.000000
E 103 394 102.000000
E 103 450 103.000000
E 103 503 99.000000
E 103 512 104.000000
E 103 558 96.000000
E 104 320 105.000000
E 104 624 99.000000
E 105 247 107.000000
E 105 342 104.000000
E 106 325 104.000000
E 106 432 103.000000
E 106 522 102.000000
E 106 601 93.000000
E 107 365 94.000000
E 107 502 105.000000
E 107 590 100.000000
E 108 114 98.000000
E 108 305 93.000000
E 108 336 96.000000
E 108 380 103.000000
E 108 518 103.000000
E 108 535 95.000000
E 109 184 107.000000
E 109 443 99.000000
E 109 445 102.000000
E 109 455 98.000000
E 109 465 94.000000
E 109 624 108.000000
E 110 271 96.000000
E 110 551 99.000000
E 111 137 97.000000
E 111 162 108.000000
E 111 188 104.000000
E 112 131 97.000000
E 112 206 107.000000
E 112 551 104.000000
E 113 624 98.000000
E 114 183 95.000000
E 114 358 98.000000
E 114 548 104.000000
E 115 338 100.000000
E 115 590 98.000000
E 116 128 101.000000
E 116 226 103.000000
E 117 197 97.000000
E 117 258 95.000000
E 117 263 91.000000
E 117 308 93.000000
E 117 427 102.000000
E 118 229 100.000000
E 118 243 100.000000
E 119 166 109.000000
E 119 464 102.000000
E 119 466 96.000000
E 120 254 102.000000
E 120 423 100.000000
E 120 519 109.000000
E 120 563 102.000000
E 121 353 96.000000
E 121 574 99.000000
E 122 193 101.000000
E 122 261 100.000000
E 123 148 98.000000
E 123 223 98.000000
E 123 368 92.000000
E 123 511 95.000000
E 123 543 98.000000
E 124 146 102.000000
E 124 199 91.000000
E 125 218 107.000000
E 125 386 96.000000
E 125 601 108.000000
E 126 245 101.000000
E 126 505 87.000000
E 127 271 94.000000
E 127 280 107.000000
E 127 319 107.000000
E 127 492 107.000000
E 129 150 100.000000
E 129 193 103.000000
E 129 254 98.000000
E 129 441 103.000000
E 129 448 98.000000
E 129 463 106.000000
E 129 584 106.000000
E 130 224 104.000000
E 130 348 99.000000
E 130 618 95.000000
E 131 134 100.000000
E 131 179 103.000000
E 131 462 92.000000
E 132 477 97.000000
E 132 569 103.000000
E 133 174 101.000000
E 133 570 101.000000
E 134 170 107.000000
E 134 238 102.000000
E 136 359 105.000000
E 136 574 98.000000
E 136 617 100.000000
E 136 632 104.000000
E 137 194 101.000000
E 137 238 99.000000
E 137 327 95.000000
E 137 363 103.000000
E 138 400 92.000000
E 139 252 109.000000
E 139 319 101.000000
E 139 328 95.000000
E 139 482 110.000000
E 140 520 101.000000
E 140 587 111.000000
E 141 579 97.000000
E 142 168 99.000000
E 142 250 104.000000
E 143 330 95.000000
E 144 146 103.000000
E 144 245 99.000000
E 144 620 104.000000
E 144 634 102.000000
E 145 161 101.000000
E 145 208 100.000000
E 145 267 98.000000
E 145 307 99.000000
E 145 460 101.000000
E 145 544 96.000000
E 146 242 95.000000
E 146 402 99.000000
E 147 395 106.000000
E 148 474 101.000000
E 149 256 102.000000
E 149 410 95.000000
E 150 215 93.000000
E 151 418 97.000000
E 151 503 98.000000
E 151 536 105.000000
E 152 173 95.000000
E 152 381 105.000000
E 152 429 99.000000
E 153 216 101.000000
E 153 302 98.000000
E 153 389 102.000000
E 154 189 95.000000
E 154 197 112.000000
E 154 292 97.000000
E 154 596 98.000000
E 155 194 97.000000
E 156 344 102.000000
E 156 543 99.000000
E 157 370 102.000000
E 158 324 104.000000
E 158 448 98.000000
E 159 207 95.000000
E 159 520 96.000000
E 160 374 88.000000
E 160 570 98.000000
E 162 261 97.000000
E 162 330 107.000000
E 162 383 97.000000
E 162 552 101.000000
E 162 626 101.000000
E 163 237 102.000000
E 163 503 105.000000
E 163 564 105.000000
E 163 588 97.000000
E 164 228 99.000000
E 164 256 107.000000
E 164 331 101.000000
E 164 436 98.000000
E 164 528 99.000000
E 164 623 95.000000
E 164 640 99.000000
E 165 246 109.000000
E 165 563 98.000000
E 166 481 102.000000
E 166 517 96.000000
E 166 588 99.000000
E 166 637 93.000000
E 167 469 95.000000
E 167 472 90.000000
E 167 487 105.000000
E 168 184 99.000000
E 168 279 95.000000
E 168 546 104.000000
E 169 174 99.000000
E 169 379 105.000000
E 170 244 98.000000
E 170 455 96.000000
E 170 503 109.000000
E 170 514 94.000000
E 171 178 106.000000
E 171 423 99.000000
E 171 467 101.000000
E 172 258 95.000000
E 172 564 96.000000
E 172 617 92.000000
E 173 409 102.000000
E 174 190 97.000000
E 174 242 87.000000
E 174 343 88.000000
E 174 383 99.000000
E 174 417 103.000000
E 175 403 100.000000
E 175 452 97.000000
E 176 199 105.000000
E 176 339 101.000000
E 177 398 99.000000
E 177 418 104.000000
E 177 454 100.000000
E 177 637 102.000000
E 178 187 103.000000
E 178 387 109.000000
E 178 452 96.000000
E 178 460 104.000000
E 179 272 100.000000
E 179 324 103.000000
E 179 408 97.000000
E 179 473 94.000000
E 179 514 101.000000
E 179 570 101.000000
E 180 358 100.000000
E 180 375 102.000000
E 180 484 99.000000
E 182 265 104.000000
E 182 275 106.000000
E 182 364 100.000000
E 182 452 98.000000
E 182 518 105.000000
E 182 538 97.000000
E 182 552 103.000000
E 182 624 95.000000
E 183 495 98.000000
E 184 234 104.000000
E 184 247 97.000000
E 184 321 99.000000
E 184 337 96.000000
E 184 398 96.000000
E 184 424 105.000000
E 184 494 100.000000
E 184 500 97.000000
E 184 534 101.000000
E 186 233 103.000000
E 186 590 103.000000
E 186 604 94.000000
E 187 250 102.000000
E 187 486 106.000000
E 188 261 100.000000
E 188 599 105.000000
E 189 260 110.000000
E 189 309 97.000000
E 189 328 110.000000
E 189 531 101.000000
E 189 585 96.000000
E 190 366 107.000000
E 190 453 100.000000
E 191 193 96.000000
E 191 476 103.000000
E 191 609 100.000000
E 192 226 99.000000
E 192 274 94.000000
E 193 504 103.000000
E 193 575 101.000000
E 194 290 106.000000
E 194 309 103.000000
E 194 359 99.000000
E 194 439 100.000000
E 194 501 99.000000
E 194 565 96.000000
E 195 395 93.000000
E 195 468 88.000000
E 195 585 102.000000
E 196 326 97.000000
E 196 530 105.000000
E 196 600 97.000000
E 196 623 108.000000
E 197 226 98.000000
E 197 344 110.000000
E 197 358 98.000000
E 197 389 94.000000
E 198 280 101.000000
E 198 540 107.000000
E 199 349 97.000000
E 199 442 102.000000
E 199 507 100.000000
E 200 421 97.000000
E 201 277 93.000000
E 201 345 107.000000
E 202 438 98.000000
E 203 525 103.000000
E 203 542 97.000000
E 203 614 88.000000
E 204 401 100.000000
E 204 482 96.000000
E 204 583 96.000000
E 205 442 97.000000
E 205 449 91.000000
E 206 267 97.000000
E 206 289 95.000000
E 206 401 95.000000
E 207 298 101.000000
E 207 567 96.000000
E 208 290 97.000000
E 208 620 98.000000
E 209 295 101.000000
E 209 412 97.000000
E 209 439 99.000000
E 209 457 98.000000
E 210 224 102.000000
E 210 500 100.000000
E 210 590 102.000000
E 210 604 99.000000
E 211 313 96.000000
E 211 358 96.000000
E 211 595 100.000000
E 211 612 111.000000
E 212 484 101.000000
E 213 333 96.000000
E 213 363 109.000000
E 213 410 104.000000
E 213 634 97.000000
E 214 321 92.000000
E 215 227 98.000000
E 215 520 82.000000
E 215 598 103.000000
E 215 604 99.000000
E 216 498 102.000000
E 216 577 100.000000
E 216 639 107.000000
E 217 286 100.000000
E 217 408 100.000000
E 217 469 98.000000
E 217 570 96.000000
E 218 566 98.000000
E 219 306 96.000000
E 219 622 99.000000
E 220 221 97.000000
E 220 314 104.000000
E 220 450 105.000000
E 221 380 98.000000
E 221 491 105.000000
E 221 520 98.000000
E 222 236 102.000000
E 222 257 97.000000
E 222 420 103.000000
E 222 450 103.000000
E 223 492 104.000000
E 224 349 115.000000
E 224 474 103.000000
E 224 607 104.000000
E 225 281 89.000000
E 226 290 102.000000
E 226 523 99.000000
E 226 586 97.000000
E 227 371 97.000000
E 228 278 91.000000
E 228 293 93.000000
E 228 494 102.000000
E 229 490 94.000000
E 229 573 95.000000
E 229 574 105.000000
E 230 310 106.000000
E 230 311 105.000000
E 230 437 94.000000
E 230 526 103.000000
E 230 558 97.000000
E 230 594 103.000000
E 231 269 93.000000
E 231 431 102.000000
E 231 467 97.000000
E 232 602 102.000000
E 232 627 97.000000
E 233 250 102.000000
E 233 336 85.000000
E 233 403 99.000000
E 233 629 99.000000
E 234 266 105.000000
E 235 403 101.000000
E 235 461 98.000000
E 235 614 95.000000
E 236 270 100.000000
E 236 522 96.000000
E 237 346 106.000000
E 237 348 108.000000
E 237 607 96.000000
E 238 372 98.000000
E 239 533 92.000000
E 239 564 96.000000
E 239 566 101.000000
E 239 595 106.000000
E 240 285 107.000000
E 240 489 107.000000
E 240 566 97.000000
E 241 330 97.000000
E 242 291 91.000000
E 242 346 101.000000
E 242 395 104.000000
E 243 261 103.000000
E 243 305 104.000000
E 243 318 104.000000
E 243 326 106.000000
E 243 424 89.000000
E 243 592 97.000000
E 244 435 99.000000
E 244 485 103.000000
E 244 492 100.000000
E 245 305 100.000000
E 245 396 98.000000
E 247 628 100.000000
E 248 491 103.000000
E 248 575 88.000000
E 248 589 110.000000
E 249 288 96.000000
E 249 366 96.000000
E 250 391 104.000000
E 250 500 107.000000
E 251 386 95.000000
E 251 415 107.000000
E 252 291 95.000000
E 252 344 100.000000
E 252 438 102.000000
E 252 456 95.000000
E 252 502 101.000000
E 253 437 96.000000
E 253 522 95.000000
E 254 286 106.000000
E 254 471 99.000000
E 255 392 103.000000
E 255 538 97.000000
E 255 543 92.000000
E 256 495 92.000000
E 256 564 98.000000
E 257 273 101.000000
E 258 351 103.000000
E 258 381 100.000000
E 259 261 101.000000
E 259 318 103.000000
E 259 418 102.000000
E 259 496 98.000000
E 259 547 103.000000
E 259 569 106.000000
E 260 581 101.000000
E 261 280 91.000000
E 261 343 96.000000
E 261 373 100.000000
E 261 421 96.000000
E 261 457 100.000000
E 261 634 104.000000
E 262 290 105.000000
E 262 394 105.000000
E 262 549 103.000000
E 262 571 102.000000
E 263 605 100.000000
E 264 490 103.000000
E 264 602 99.000000
E 265 425 102.000000
E 266 324 108.000000
E 266 443 106.000000
E 266 499 95.000000
E 266 621 99.000000
E 268 293 104.000000
E 268 575 93.000000
E 269 377 109.000000
E 269 526 97.000000
E 270 612 101.000000
E 270 626 100.000000
E 271 375 102.000000
E 271 418 101.000000
E 272 292 101.000000
E 272 612 97.000000
E 273 366 98.000000
E 273 477 106.000000
E 273 634 98.000000
E 274 342 96.000000
E 275 347 99.000000
E 275 413 95.000000
E 276 307 99.000000
E 276 360 99.000000
E 277 397 93.000000
E 277 446 101.000000
E 277 455 99.000000
E 277 600 93.000000
E 278 390 108.000000
E 279 404 102.000000
E 279 510 100.000000
E 279 597 92.000000
E 280 621 114.000000
E 281 499 106.000000
E 281 512 101.000000
E 281 618 93.000000
E 282 363 91.000000
E 282 371 97.000000
E 282 604 101.000000
E 283 307 99.000000
E 283 361 95.000000
E 283 397 88.000000
E 284 365 98.000000
E 285 461 95.000000
E 286 328 93.000000
E 286 470 100.000000
E 286 478 94.000000
E 286 492 99.000000
E 286 515 97.000000
E 286 551 101.000000
E 286 622 95.000000
E 287 474 100.000000
E 288 316 97.000000
E 288 381 103.000000
E 288 524 103.000000
E 289 512 101.000000
E 290 296 94.000000
E 290 446 95.000000
E 290 460 104.000000
E 291 356 97.000000
E 291 396 104.000000
E 291 451 88.000000
E 291 463 102.000000
E 291 513 109.000000
E 291 583 94.000000
E 292 345 93.000000
E 292 432 99.000000
E 292 452 108.000000
E 292 462 106.000000
E 292 480 100.000000
E 292 558 99.000000
E 293 626 97.000000
E 294 396 91.000000
E 294 456 107.000000
E 294 474 95.000000
E 294 585 98.000000
E 295 298 96.000000
E 295 317 95.000000
E 295 370 103.000000
E 296 332 94.000000
E 296 377 103.000000
E 296 404 94.000000
E 297 502 97.000000
E 297 579 99.000000
E 298 388 99.000000
E 298 431 107.000000
E 299 395 98.000000
E 300 381 94.000000
E 300 382 96.000000
E 300 627 103.000000
E 301 455 99.000000
E 301 536 106.000000
E 301 541 104.000000
E 302 382 98.000000
E 302 427 102.000000
E 303 331 109.000000
E 303 365 96.000000
E 303 603 97.000000
E 304 451 95.000000
E 304 529 105.000000
E 304 533 109.000000
E 304 638 106.000000
E 307 391 93.000000
E 307 494 97.000000
E 307 520 103.000000
E 308 315 87.000000
E 308 372 96.000000
E 308 577 105.000000
E 308 606 100.000000
E 309 451 103.000000
E 309 534 103.000000
E 309 611 100.000000
E 310 352 101.000000
E 310 542 97.000000
E 311 367 90.000000
E 311 563 91.000000
E 311 623 102.000000
E 312 415 105.000000
E 312 575 96.000000
E 313 359 99.000000
E 313 447 101.000000
E 313 545 102.000000
E 314 367 105.000000
E 314 423 97.000000
E 315 396 103.000000
E 315 398 95.000000
E 316 374 95.000000
E 317 412 100.000000
E 317 507 93.000000
E 317 566 101.000000
E 318 561 101.000000
E 319 362 98.000000
E 319 496 88.000000
E 319 555 98.000000
E 319 596 102.000000
E 320 366 99.000000
E 320 379 103.000000
E 320 400 103.000000
E 320 462 97.000000
E 321 445 93.000000
E 321 478 103.000000
E 322 401 101.000000
E 322 406 88.000000
E 323 446 91.000000
E 323 483 101.000000
E 323 531 92.000000
E 323 615 109.000000
E 324 485 100.000000
E 324 527 95.000000
E 325 408 98.000000
E 325 440 112.000000
E 327 447 96.000000
E 327 469 102.000000
E 327 585 99.000000
E 327 596 93.000000
E 329 504 95.000000
E 331 521 98.000000
E 331 551 97.000000
E 332 618 98.000000
E 333 591 98.000000
E 334 349 95.000000
E 335 483 103.000000
E 335 503 103.000000
E 335 561 93.000000
E 335 635 99.000000
E 337 457 99.000000
E 337 502 98.000000
E 338 346 100.000000
E 338 525 104.000000
E 338 589 95.000000
E 339 373 109.000000
E 339 420 99.000000
E 339 484 91.000000
E 339 504 93.000000
E 340 370 91.000000
E 340 558 106.000000
E 340 623 100.000000
E 340 639 97.000000
E 341 352 106.000000
E 341 416 106.000000
E 341 431 100.000000
E 342 424 98.000000
E 342 437 108.000000
E 342 568 100.000000
E 342 616 98.000000
E 343 572 109.000000
E 344 561 102.000000
E 345 396 96.000000
E 346 409 98.000000
E 346 611 99.000000
E 347 437 98.000000
E 348 402 112.000000
E 348 503 106.000000
E 349 630 101.000000
E 350 571 105.000000
E 350 624 102.000000
E 351 445 107.000000
E 351 451 96.000000
E 351 537 95.000000
E 352 390 98.000000
E 352 417 88.000000
E 352 435 102.000000
E 352 560 106.000000
E 353 595 90.000000
E 353 614 98.000000
E 354 411 96.000000
E 354 486 103.000000
E 355 624 104.000000
E 356 430 103.000000
E 357 405 95.000000
E 357 454 106.000000
E 359 393 94.000000
E 359 562 99.000000
E 361 583 97.000000
E 361 592 108.000000
E 361 639 95.000000
E 362 553 96.000000
E 363 389 93.000000
E 363 451 98.000000
E 363 571 98.000000
E 364 614 95.000000
E 365 474 101.000000
E 365 481 101.000000
E 365 497 106.000000
E 366 439 93.000000
E 366 575 96.000000
E 366 577 102.000000
E 366 592 104.000000
E 368 397 92.000000
E 368 580 104.000000
E 368 633 100.000000
E 369 407 103.000000
E 369 544 99.000000
E 370 395 98.000000
E 370 474 99.000000
E 370 587 105.000000
E 371 501 103.000000
E 371 541 107.000000
E 371 618 97.000000
E 372 555 99.000000
E 372 635 99.000000
E 373 537 88.000000
E 374 556 101.000000
E 375 393 101.000000
E 375 443 101.000000
E 376 461 97.000000
E 376 489 104.000000
E 376 568 106.000000
E 377 580 95.000000
E 377 590 95.000000
E 377 591 105.000000
E 378 415 107.000000
E 378 417 99.000000
E 378 442 96.000000
E 378 448 103.000000
E 378 467 90.000000
E 378 495 112.000000
E 379 623 104.000000
E 381 527 91.000000
E 381 636 93.000000
E 382 547 93.000000
E 382 558 99.000000
E 383 596 105.000000
E 384 578 97.000000
E 385 410 99.000000
E 385 531 92.000000
E 385 604 86.000000
E 386 387 102.000000
E 386 623 90.000000
E 387 535 109.000000
E 387 613 104.000000
E 388 481 95.000000
E 388 542 93.000000
E 388 551 103.000000
E 389 397 106.000000
E 389 591 93.000000
E 390 431 91.000000
E 390 459 102.000000
E 390 495 105.000000
E 392 519 100.000000
E 392 558 95.000000
E 392 589 99.000000
E 393 556 100.000000
E 394 400 104.000000
E 394 422 97.000000
E 395 590 98.000000
E 396 493 109.000000
E 396 539 96.000000
E 396 583 104.000000
E 396 594 94.000000
E 396 625 90.000000
E 397 472 101.000000
E 397 504 99.000000
E 397 557 103.000000
E 398 405 104.000000
E 398 428 94.000000
E 398 482 96.000000
E 399 496 99.000000
E 399 525 91.000000
E 399 604 97.000000
E 400 411 96.000000
E 402 532 93.000000
E 403 415 101.000000
E 403 502 102.000000
E 403 618 99.000000
E 406 423 103.000000
E 407 475 98.000000
E 407 499 97.000000
E 407 593 103.000000
E 409 537 96.000000
E 409 605 99.000000
E 411 547 101.000000
E 412 413 95.000000
E 412 464 99.000000
E 412 479 102.000000
E 413 443 100.000000
E 414 429 104.000000
E 414 453 95.000000
E 416 592 112.000000
E 418 535 101.000000
E 419 548 96.000000
E 420 595 98.000000
E 421 480 99.000000
E 421 509 93.000000
E 422 440 98.000000
E 422 557 107.000000
E 424 569 100.000000
E 425 455 102.000000
E 425 637 104.000000
E 426 450 97.000000
E 427 449 104.000000
E 429 557 100.000000
E 429 627 105.000000
E 430 459 94.000000
E 430 536 103.000000
E 431 441 99.000000
E 432 469 96.000000
E 432 631 95.000000
E 433 498 103.000000
E 433 590 101.000000
E 436 481 90.000000
E 436 507 105.000000
E 436 539 105.000000
E 436 592 88.000000
E 437 603 96.000000
E 438 610 108.000000
E 442 553 100.000000
E 442 574 98.000000
E 445 525 100.000000
E 445 552 103.000000
E 447 559 96.000000
E 447 604 96.000000
E 448 451 100.000000
E 448 489 98.000000
E 450 591 98.000000
E 451 507 98.000000
E 451 559 91.000000
E 451 589 107.000000
E 451 613 100.000000
E 452 467 98.000000
E 453 548 97.000000
E 454 474 99.000000
E 454 547 105.000000
E 454 618 105.000000
E 456 574 86.000000
E 456 631 94.000000
E 459 610 109.000000
E 460 487 101.000000
E 462 521 106.000000
E 463 507 96.000000
E 463 606 106.000000
E 465 505 98.000000
E 465 509 94.000000
E 468 480 95.000000
E 469 520 103.000000
E 472 536 101.000000
E 478 620 101.000000
E 479 556 94.000000
E 480 577 93.000000
E 480 592 100.000000
E 481 537 103.000000
E 481 572 102.000000
E 483 493 98.000000
E 488 525 99.000000
E 490 544 103.000000
E 492 542 104.000000
E 493 507 103.000000
E 493 592 93.000000
E 494 498 98.000000
E 495 579 97.000000
E 496 623 92.000000
E 497 609 100.000000
E 498 541 92.000000
E 498 557 109.000000
E 501 541 90.000000
E 503 517 90.000000
E 503 550 105.000000
E 503 617 100.000000
E 505 512 108.000000
E 505 541 102.000000
E 506 547 94.000000
E 507 597 93.000000
E 509 515 97.000000
E 510 532 94.000000
E 511 622 105.000000
E 513 619 108.000000
E 514 586 94.000000
E 517 523 105.000000
E 517 533 96.000000
E 519 586 102.000000
E 520 608 99.000000
E 520 634 92.000000
E 522 624 97.000000
E 523 532 100.000000
E 525 545 95.000000
E 525 633 101.000000
E 526 623 93.000000
E 527 531 105.000000
E 529 548 97.000000
E 529 558 97.000000
E 529 620 102.000000
E 530 627 94.000000
E 532 551 103.000000
E 532 581 93.000000
E 533 545 98.000000
E 533 570 99.000000
E 533 594 106.000000
E 536 563 101.000000
E 536 568 103.000000
E 537 541 93.000000
E 537 624 104.000000
E 539 541 96.000000
E 540 573 102.000000
E 544 618 103.000000
E 545 637 103.000000
E 546 549 113.000000
E 550 577 91.000000
E 554 621 100.000000
E 556 605 103.000000
E 557 572 91.000000
E 558 624 103.000000
E 561 587 93.000000
E 563 566 103.000000
E 568 585 102.000000
E 572 576 104.000000
E 574 618 108.000000
E 576 631 103.000000
E 578 591 93.000000
E 579 623 105.000000
E 582 612 98.000000
E 583 615 100.000000
E 583 626 103.000000
E 583 635 99.000000
E 588 632 103.000000
E 598 638 100.000000
E 604 621 99.000000
E 605 627 101.000000
E 609 632 103.000000
E 614 630 99.000000
E 619 622 98.000000
E 620 625 107.000000
END

SECTION Terminals
Terminals 9
TP 1 652.000000
TP 2 744.000000
TP 3 652.000000
TP 4 780.000000
TP 5 164.000000
TP 6 452.000000
TP 7 160.000000
TP 8 192.000000
TP 9 0.000000
END

EOF
